QPLIB_3083
LCQ
minimize
243 # number of variables
233 # number of constraints
0.0 # default value for linear coefficients in objective
6 # number of non-default linear coefficients in objective
1 1.0
2 1.0
3 1.0
4 1.0
5 1.0
6 1.0
0.0 # objective constant
126 # number of quadratic terms in all constraints
108 1 1 2.0
109 30242033 30219905 2.0
110 1 1 2.0
111 1282374521 66 2.0
112 32540 1 2.0
113 1282374569 1 2.0
114 32540 1 2.0
115 1282374569 1 2.0
116 32540 1 2.0
117 30219905 1 2.0
118 2 1 2.0
119 66 1 2.0
120 245 1 2.0
121 1282374569 1 2.0
122 32540 1 2.0
123 1282374569 30195089 2.0
124 32540 1 2.0
125 305 1 2.0
126 2 1 2.0
127 113 1 2.0
128 245 1 2.0
129 1258463841 1 2.0
130 32540 1 2.0
131 30195089 1 2.0
132 1 1 2.0
133 305 1 2.0
134 1 1 2.0
135 113 1 2.0
136 1 1 2.0
137 1258463841 30192193 2.0
138 32540 1 2.0
139 30195745 1 2.0
140 1 1 2.0
141 1 1 2.0
142 1 1 2.0
143 1 1 2.0
144 1 1 2.0
145 30192193 1 2.0
146 1 1 2.0
147 30195745 1 2.0
148 10 1 2.0
149 1 1 2.0
150 1 1 2.0
151 1 1 2.0
152 1027 1 2.0
153 30196225 1 2.0
154 1 1 2.0
155 34 1 2.0
156 10 1 2.0
157 1818576901 1 2.0
158 32625 1 2.0
159 1282374521 1 2.0
160 32540 1027 2.0
161 30196225 33 2.0
162 1 1 2.0
163 50 34 2.0
164 1 1 2.0
165 1818576901 1651076122 2.0
166 1852403556 32625 2.0
167 1768711012 1282374521 2.0
168 775173731 32540 2.0
169 1646292852 33 2.0
170 824209008 1 2.0
171 12321 50 2.0
172 1 1 2.0
173 1651076122 1 2.0
174 1852403556 1 2.0
175 1768711012 50 2.0
176 775173731 1 2.0
177 1651076122 1646292852 2.0
178 1852403556 824209008 2.0
179 1768711012 12321 2.0
180 775173731 1 2.0
181 1663070068 1 2.0
182 824206179 1 2.0
183 12321 50 2.0
184 1 1 2.0
185 1651076122 1 2.0
186 1852403556 1 2.0
187 1768711012 50 2.0
188 775173731 1 2.0
189 1663070068 1651076122 2.0
190 1852403556 824206179 2.0
191 1768711012 12321 2.0
192 775173731 1 2.0
193 1646292852 1 2.0
194 824209008 1 2.0
195 12321 50 2.0
196 1 1 2.0
197 1651076122 30146561 2.0
198 1852403556 1 2.0
199 1768711012 50 2.0
200 775173731 1 2.0
201 1651076122 1646292852 2.0
202 1852403556 824209008 2.0
203 1768711012 12321 2.0
204 775173731 1 2.0
205 1663070068 30146561 2.0
206 824206179 1 2.0
207 12321 50 2.0
208 1 1 2.0
209 1651076122 193 2.0
210 1852403556 1 2.0
211 1768711012 50 2.0
212 775173731 1 2.0
213 1663070068 1651076122 2.0
214 1852403556 824206179 2.0
215 1768711012 12321 2.0
216 775173731 1 2.0
217 1663070068 193 2.0
218 824210800 1 2.0
219 1282355233 50 2.0
220 32540 1 2.0
221 1651076122 1 2.0
222 1852403556 1 2.0
223 1768711012 50 2.0
224 775173731 1 2.0
225 1663070068 1651076122 2.0
226 1852403556 824210800 2.0
227 1768711012 1282355233 2.0
228 775173731 32540 2.0
229 1763733364 1 2.0
230 824209265 1 2.0
231 12321 50 2.0
232 1 1 2.0
233 1651076122 1 2.0
749 # number of linear terms in all constraints
1 7 -1.0
1 8 -1.0
1 9 -1.0
1 10 -1.0
1 11 -1.0
1 12 -1.0
1 13 -1.0
2 14 -1.0
2 15 -1.0
2 16 -1.0
2 17 -1.0
2 18 -1.0
2 19 -1.0
2 20 -1.0
3 1 1.0
3 8 -1.0
3 15 -1.0
3 21 -1.0
3 22 -1.0
3 23 -1.0
3 24 -1.0
3 25 -1.0
3 26 -1.0
4 2 1.0
4 9 -1.0
4 16 -1.0
4 27 -1.0
4 28 -1.0
4 29 -1.0
4 30 -1.0
4 31 -1.0
4 32 -1.0
5 3 1.0
5 10 -1.0
5 17 -1.0
5 33 -1.0
5 34 -1.0
5 35 -1.0
5 36 -1.0
5 37 -1.0
5 38 -1.0
6 4 1.0
6 11 -1.0
6 18 -1.0
6 39 -1.0
6 40 -1.0
6 41 -1.0
6 42 -1.0
6 43 -1.0
6 44 -1.0
7 5 1.0
7 12 -1.0
7 19 -1.0
7 45 -1.0
7 46 -1.0
7 47 -1.0
7 48 -1.0
7 49 -1.0
7 50 -1.0
8 6 1.0
8 13 -1.0
8 20 -1.0
8 51 -1.0
8 52 -1.0
8 53 -1.0
8 54 -1.0
8 55 -1.0
8 56 -1.0
9 1 1.0
9 21 -1.0
9 27 -1.0
9 33 -1.0
9 39 -1.0
9 45 -1.0
9 51 -1.0
9 57 -1.0
10 2 1.0
10 22 -1.0
10 28 -1.0
10 34 -1.0
10 40 -1.0
10 46 -1.0
10 52 -1.0
10 58 -1.0
11 3 1.0
11 23 -1.0
11 29 -1.0
11 35 -1.0
11 41 -1.0
11 47 -1.0
11 53 -1.0
11 59 -1.0
12 4 1.0
12 24 -1.0
12 30 -1.0
12 36 -1.0
12 42 -1.0
12 48 -1.0
12 54 -1.0
12 60 -1.0
13 5 1.0
13 25 -1.0
13 31 -1.0
13 37 -1.0
13 43 -1.0
13 49 -1.0
13 55 -1.0
13 61 -1.0
14 6 1.0
14 26 -1.0
14 32 -1.0
14 38 -1.0
14 44 -1.0
14 50 -1.0
14 56 -1.0
14 62 -1.0
15 7 -1.0
15 14 -1.0
15 57 -1.0
15 58 -1.0
15 59 -1.0
15 60 -1.0
15 61 -1.0
15 62 -1.0
15 63 1.0
16 64 -1.0
16 65 -1.0
16 66 -1.0
16 67 -1.0
16 68 -1.0
16 69 -1.0
16 70 -1.0
17 71 -1.0
17 72 -1.0
17 73 -1.0
17 74 -1.0
17 75 -1.0
17 76 -1.0
17 77 -1.0
18 78 -1.0
18 79 -1.0
18 80 -1.0
18 81 -1.0
18 82 -1.0
18 83 -1.0
18 84 -1.0
19 85 -1.0
19 86 -1.0
19 87 -1.0
19 88 -1.0
19 89 -1.0
19 90 -1.0
19 91 -1.0
20 65 -1.0
20 92 31500.0
21 72 -1.0
21 92 105000.0
22 66 -1.0
22 93 31500.0
23 73 -1.0
23 93 105000.0
24 67 -1.0
24 94 31500.0
25 74 -1.0
25 94 105000.0
26 68 -1.0
26 95 31500.0
27 75 -1.0
27 95 105000.0
28 69 -1.0
28 96 31500.0
29 76 -1.0
29 96 105000.0
30 70 -1.0
30 97 31500.0
31 77 -1.0
31 97 105000.0
32 79 -1.0
32 98 29700.0
33 86 -1.0
33 98 37800.0
34 80 -1.0
34 99 29700.0
35 87 -1.0
35 99 37800.0
36 81 -1.0
36 100 29700.0
37 88 -1.0
37 100 37800.0
38 82 -1.0
38 101 29700.0
39 89 -1.0
39 101 37800.0
40 83 -1.0
40 102 29700.0
41 90 -1.0
41 102 37800.0
42 84 -1.0
42 103 29700.0
43 91 -1.0
43 103 37800.0
44 64 -1.0
44 104 31500.0
45 71 -1.0
45 104 105000.0
46 78 -1.0
46 105 29700.0
47 85 -1.0
47 105 37800.0
48 8 -1.0
48 92 150.0
49 9 -1.0
49 93 150.0
50 10 -1.0
50 94 150.0
51 11 -1.0
51 95 150.0
52 12 -1.0
52 96 150.0
53 13 -1.0
53 97 150.0
54 15 -1.0
54 98 270.0
55 16 -1.0
55 99 270.0
56 17 -1.0
56 100 270.0
57 18 -1.0
57 101 270.0
58 19 -1.0
58 102 270.0
59 20 -1.0
59 103 270.0
60 7 -1.0
60 104 150.0
61 14 -1.0
61 105 270.0
62 92 1.0
62 93 1.0
62 94 1.0
62 95 1.0
62 96 1.0
62 97 1.0
62 104 1.0
63 98 1.0
63 99 1.0
63 100 1.0
63 101 1.0
63 102 1.0
63 103 1.0
63 105 1.0
64 1 -45.0
64 65 1.0
64 79 1.0
64 106 1.0
64 107 1.0
64 108 1.0
64 109 1.0
64 110 1.0
64 111 1.0
65 1 -200.0
65 72 1.0
65 86 1.0
65 112 1.0
65 113 1.0
65 114 1.0
65 115 1.0
65 116 1.0
65 117 1.0
66 2 -110.0
66 66 1.0
66 80 1.0
66 118 1.0
66 119 1.0
66 120 1.0
66 121 1.0
66 122 1.0
66 123 1.0
67 2 -90.0
67 73 1.0
67 87 1.0
67 124 1.0
67 125 1.0
67 126 1.0
67 127 1.0
67 128 1.0
67 129 1.0
68 3 -190.0
68 67 1.0
68 81 1.0
68 130 1.0
68 131 1.0
68 132 1.0
68 133 1.0
68 134 1.0
68 135 1.0
69 3 -50.0
69 74 1.0
69 88 1.0
69 136 1.0
69 137 1.0
69 138 1.0
69 139 1.0
69 140 1.0
69 141 1.0
70 4 -200.0
70 68 1.0
70 82 1.0
70 142 1.0
70 143 1.0
70 144 1.0
70 145 1.0
70 146 1.0
70 147 1.0
71 4 -90.0
71 75 1.0
71 89 1.0
71 148 1.0
71 149 1.0
71 150 1.0
71 151 1.0
71 152 1.0
71 153 1.0
72 5 -60.0
72 69 1.0
72 83 1.0
72 154 1.0
72 155 1.0
72 156 1.0
72 157 1.0
72 158 1.0
72 159 1.0
73 5 -500.0
73 76 1.0
73 90 1.0
73 160 1.0
73 161 1.0
73 162 1.0
73 163 1.0
73 164 1.0
73 165 1.0
74 6 -20.0
74 70 1.0
74 84 1.0
74 166 1.0
74 167 1.0
74 168 1.0
74 169 1.0
74 170 1.0
74 171 1.0
75 6 -190.0
75 77 1.0
75 91 1.0
75 172 1.0
75 173 1.0
75 174 1.0
75 175 1.0
75 176 1.0
75 177 1.0
76 65 0.1
76 79 0.1
76 106 0.1
76 107 0.1
76 108 0.1
76 109 0.1
76 110 0.1
76 111 0.1
76 178 -1.0
77 72 1.0
77 86 1.0
77 112 1.0
77 113 1.0
77 114 1.0
77 115 1.0
77 116 1.0
77 117 1.0
77 179 -1.0
78 66 0.3
78 80 0.3
78 118 0.3
78 119 0.3
78 120 0.3
78 121 0.3
78 122 0.3
78 123 0.3
78 180 -1.0
79 73 0.1
79 87 0.1
79 124 0.1
79 125 0.1
79 126 0.1
79 127 0.1
79 128 0.1
79 129 0.1
79 181 -1.0
80 67 1.0
80 81 1.0
80 130 1.0
80 131 1.0
80 132 1.0
80 133 1.0
80 134 1.0
80 135 1.0
80 182 -1.0
81 74 0.2
81 88 0.2
81 136 0.2
81 137 0.2
81 138 0.2
81 139 0.2
81 140 0.2
81 141 0.2
81 183 -1.0
82 68 0.5
82 82 0.5
82 142 0.5
82 143 0.5
82 144 0.5
82 145 0.5
82 146 0.5
82 147 0.5
82 184 -1.0
83 75 1.0
83 89 1.0
83 148 1.0
83 149 1.0
83 150 1.0
83 151 1.0
83 152 1.0
83 153 1.0
83 185 -1.0
84 69 0.1
84 83 0.1
84 154 0.1
84 155 0.1
84 156 0.1
84 157 0.1
84 158 0.1
84 159 0.1
84 186 -1.0
85 76 0.3
85 90 0.3
85 160 0.3
85 161 0.3
85 162 0.3
85 163 0.3
85 164 0.3
85 165 0.3
85 187 -1.0
86 70 0.8
86 84 0.8
86 166 0.8
86 167 0.8
86 168 0.8
86 169 0.8
86 170 0.8
86 171 0.8
86 188 -1.0
87 77 0.6
87 91 0.6
87 172 0.6
87 173 0.6
87 174 0.6
87 175 0.6
87 176 0.6
87 177 0.6
87 189 -1.0
88 106 -1.0
88 118 -1.0
88 130 -1.0
88 142 -1.0
88 154 -1.0
88 166 -1.0
88 178 1.0
88 190 -1.0
89 112 -1.0
89 124 -1.0
89 136 -1.0
89 148 -1.0
89 160 -1.0
89 172 -1.0
89 179 1.0
89 191 -1.0
90 107 -1.0
90 119 -1.0
90 131 -1.0
90 143 -1.0
90 155 -1.0
90 167 -1.0
90 180 1.0
90 192 -1.0
91 113 -1.0
91 125 -1.0
91 137 -1.0
91 149 -1.0
91 161 -1.0
91 173 -1.0
91 181 1.0
91 193 -1.0
92 108 -1.0
92 120 -1.0
92 132 -1.0
92 144 -1.0
92 156 -1.0
92 168 -1.0
92 182 1.0
92 194 -1.0
93 114 -1.0
93 126 -1.0
93 138 -1.0
93 150 -1.0
93 162 -1.0
93 174 -1.0
93 183 1.0
93 195 -1.0
94 109 -1.0
94 121 -1.0
94 133 -1.0
94 145 -1.0
94 157 -1.0
94 169 -1.0
94 184 1.0
94 196 -1.0
95 115 -1.0
95 127 -1.0
95 139 -1.0
95 151 -1.0
95 163 -1.0
95 175 -1.0
95 185 1.0
95 197 -1.0
96 110 -1.0
96 122 -1.0
96 134 -1.0
96 146 -1.0
96 158 -1.0
96 170 -1.0
96 186 1.0
96 198 -1.0
97 116 -1.0
97 128 -1.0
97 140 -1.0
97 152 -1.0
97 164 -1.0
97 176 -1.0
97 187 1.0
97 199 -1.0
98 111 -1.0
98 123 -1.0
98 135 -1.0
98 147 -1.0
98 159 -1.0
98 171 -1.0
98 188 1.0
98 200 -1.0
99 117 -1.0
99 129 -1.0
99 141 -1.0
99 153 -1.0
99 165 -1.0
99 177 -1.0
99 189 1.0
99 201 -1.0
100 202 1.0
100 203 1.0
100 204 1.0
100 205 1.0
100 206 1.0
100 207 1.0
100 208 1.0
101 209 1.0
101 210 1.0
101 211 1.0
101 212 1.0
101 213 1.0
101 214 1.0
101 215 1.0
102 216 1.0
102 217 1.0
102 218 1.0
102 219 1.0
102 220 1.0
102 221 1.0
102 222 1.0
103 223 1.0
103 224 1.0
103 225 1.0
103 226 1.0
103 227 1.0
103 228 1.0
103 229 1.0
104 230 1.0
104 231 1.0
104 232 1.0
104 233 1.0
104 234 1.0
104 235 1.0
104 236 1.0
105 237 1.0
105 238 1.0
105 239 1.0
105 240 1.0
105 241 1.0
105 242 1.0
105 243 1.0
106 63 -5.0
106 64 1.0
106 78 1.0
106 190 1.0
106 192 1.0
106 194 1.0
106 196 1.0
106 198 1.0
106 200 1.0
107 63 -15.0
107 71 1.0
107 85 1.0
107 191 1.0
107 193 1.0
107 195 1.0
107 197 1.0
107 199 1.0
107 201 1.0
108 106 -1.0
109 112 -1.0
110 118 -1.0
111 124 -1.0
112 130 -1.0
113 136 -1.0
114 142 -1.0
115 148 -1.0
116 154 -1.0
117 160 -1.0
118 166 -1.0
119 172 -1.0
120 107 -1.0
121 113 -1.0
122 119 -1.0
123 125 -1.0
124 131 -1.0
125 137 -1.0
126 143 -1.0
127 149 -1.0
128 155 -1.0
129 161 -1.0
130 167 -1.0
131 173 -1.0
132 108 -1.0
133 114 -1.0
134 120 -1.0
135 126 -1.0
136 132 -1.0
137 138 -1.0
138 144 -1.0
139 150 -1.0
140 156 -1.0
141 162 -1.0
142 168 -1.0
143 174 -1.0
144 109 -1.0
145 115 -1.0
146 121 -1.0
147 127 -1.0
148 133 -1.0
149 139 -1.0
150 145 -1.0
151 151 -1.0
152 157 -1.0
153 163 -1.0
154 169 -1.0
155 175 -1.0
156 110 -1.0
157 116 -1.0
158 122 -1.0
159 128 -1.0
160 134 -1.0
161 140 -1.0
162 146 -1.0
163 152 -1.0
164 158 -1.0
165 164 -1.0
166 170 -1.0
167 176 -1.0
168 111 -1.0
169 117 -1.0
170 123 -1.0
171 129 -1.0
172 135 -1.0
173 141 -1.0
174 147 -1.0
175 153 -1.0
176 159 -1.0
177 165 -1.0
178 171 -1.0
179 177 -1.0
180 190 -1.0
181 191 -1.0
182 192 -1.0
183 193 -1.0
184 194 -1.0
185 195 -1.0
186 196 -1.0
187 197 -1.0
188 198 -1.0
189 199 -1.0
190 200 -1.0
191 201 -1.0
192 21 -1.0
193 27 -1.0
194 33 -1.0
195 39 -1.0
196 45 -1.0
197 51 -1.0
198 22 -1.0
199 28 -1.0
200 34 -1.0
201 40 -1.0
202 46 -1.0
203 52 -1.0
204 23 -1.0
205 29 -1.0
206 35 -1.0
207 41 -1.0
208 47 -1.0
209 53 -1.0
210 24 -1.0
211 30 -1.0
212 36 -1.0
213 42 -1.0
214 48 -1.0
215 54 -1.0
216 25 -1.0
217 31 -1.0
218 37 -1.0
219 43 -1.0
220 49 -1.0
221 55 -1.0
222 26 -1.0
223 32 -1.0
224 38 -1.0
225 44 -1.0
226 50 -1.0
227 56 -1.0
228 57 -1.0
229 58 -1.0
230 59 -1.0
231 60 -1.0
232 61 -1.0
233 62 -1.0
1.79769313486232E+308 # value for infinity
0.0 # default left-hand-side value
28 # number of non-default left-hand-sides
1 -150.0
2 -270.0
16 -31500.0
17 -105000.0
18 -29700.0
19 -37800.0
62 1.0
63 1.0
64 -1.79769313486232E+308
65 -1.79769313486232E+308
66 -1.79769313486232E+308
67 -1.79769313486232E+308
68 -1.79769313486232E+308
69 -1.79769313486232E+308
70 -1.79769313486232E+308
71 -1.79769313486232E+308
72 -1.79769313486232E+308
73 -1.79769313486232E+308
74 -1.79769313486232E+308
75 -1.79769313486232E+308
100 1.0
101 1.0
102 1.0
103 1.0
104 1.0
105 1.0
106 -1.79769313486232E+308
107 -1.79769313486232E+308
0.0 # default right-hand-side value
14 # number of non-default right-hand-sides
1 -150.0
2 -270.0
16 -31500.0
17 -105000.0
18 -29700.0
19 -37800.0
62 1.0
63 1.0
100 1.0
101 1.0
102 1.0
103 1.0
104 1.0
105 1.0
0.0 # default variable lower bound value
0 # number of non-default variable lower bounds
1000000.0 # default variable upper bound value
0 # number of non-default variable upper bounds
0.0 # default variable primal value in starting point
0 # number of non-default variable primal values in starting point
0.0 # default constraint dual value in starting point
0 # number of non-default constraint dual values in starting point
0.0 # default variable bound dual value in starting point
0 # number of non-default variable bound dual values in starting point
0 # number of non-default variable names
0 # number of non-default constraint names
